
set I:= 2	3	4 5 6	7 	8	9	10	11 12 13	14	15 16	17	18	19	20 21 22 
23 24 25 26 27 28 29 30 31 32 33 34 35 36 37 38 39 40 41 42 43 44 45 46 47 48 49 50 51
52 53 54 55 56 57 58 59 60 61 62 63 ;

set Nodos:= 1 2	3	4 5 6	7 	8	9	10	11 12 13	14	15 16	17	18	19	20 21 22
23 24 25 26 27 28 29 30 31 32 33 34 35 36 37 38 39 40 41 42 43 44 45 46 47 48 49 50 51
52 53 54 55 56 57 58 59 60 61 62 63;

set K:= 1 2 3;
set R:= A B C;
set T:= A B C;


param: xcoord	ycoord :=
1	91	93
2	7	5
3	27	91
4	21	47
5	33	11
6	19	99
7	59	25
8	69	79
9	11	73
10	21	35
11	59	45
12	99	81
13	71	47
14	53	83
15	87	1
16	79	67
17	59	65
18	67	21
19	27	1
20	81	93
21	59	89
22	95	23
23	73	25
24	41	25
25	3	65
26	59	83
27	83	97
28	5	83
29	71	35
30	37	97
31	29	93
32	19	21
33	83	13
34	97	67
35	31	83
36	65	17
37	19	63
38	59	23
39	17	25
40	45	27
41	89	7
42	19	41
43	23	39
44	23	21
45	83	61
46	11	93
47	17	11
48	35	11
49	21	59
50	21	69
51	71	13
52	63	13
53	49	21
54	83	31
55	41	97
56	85	15
57	77	73
58	57	1
59	83	11
60	1	75
61	45	71
62	41	55
63	45	13

;

param Q:=
1   20000
2   20000
3   20000
;

param P:=
A   5000
B   10000
C   00000
;


param alfa:=
A   1
B    .70
C    .30
;

param q:  A   B   C:=
1	0	0	0
2	200	0	0
3	0	900	0
4	0	0	1100
5	700	0	0
6	0	250	0
7	0	0	450
8	350	0	0
9	0	1000	0
10	0	0	950
11	350	0	0
12	0	900	0
13	0	0	1000
14	100	0	0
15	0	550	0
16	0	0	500
17	250	0	0
18	0	1050	0
19	0	0	1000
20	50	0	0
21	0	750	0
22	0	0	750
23	700	0	0
24	0	950	0
25	0	0	1100
26	1050	0	0
27	0	1100	0
28	0	0	300
29	1200	0	0
30	0	700	0
31	0	0	700
32	100	0	0
33	0	750	0
34	0	0	1050
35	750	0	0
36	0	300	0
37	0	0	1150
38	700	0	0
39	0	1300	0
40	0	0	750
41	750	0	0
42	0	1150	0
43	0	0	350
44	1100	0	0
45	0	1300	0
46	0	0	1000
47	150	0	0
48	0	100	0
49	0	0	750
50	100	0	0
51	0	1050	0
52	0	0	600
53	200	0	0
54	0	500	0
55	0	0	1150
56	200	0	0
57	0	1200	0
58	0	0	850
59	100	0	0
60	0	1000	0
61	0	0	900
62	950	0	0
63	0	400	0


;

param a:  A   B   C:=
1	0	0	0
2	1	0	0
3	0	1	0
4	0	0	1
5	1	0	0
6	0	1	0
7	0	0	1
8	1	0	0
9	0	1	0
10	0	0	1
11	1	0	0
12	0	1	0
13	0	0	1
14	1	0	0
15	0	1	0
16	0	0	1
17	1	0	0
18	0	1	0
19	0	0	1
20	1	0	0
21	0	1	0
22	0	0	1
23	1	0	0
24	0	1	0
25	0	0	1
26	1	0	0
27	0	1	0
28	0	0	1
29	1	0	0
30	0	1	0
31	0	0	1
32	1	0	0
33	0	1	0
34	0	0	1
35	1	0	0
36	0	1	0
37	0	0	1
38	1	0	0
39	0	1	0
40	0	0	1
41	1	0	0
42	0	1	0
43	0	0	1
44	1	0	0
45	0	1	0
46	0	0	1
47	1	0	0
48	0	1	0
49	0	0	1
50	1	0	0
51	0	1	0
52	0	0	1
53	1	0	0
54	0	1	0
55	0	0	1
56	1	0	0
57	0	1	0
58	0	0	1
59	1	0	0
60	0	1	0
61	0	0	1
62	1	0	0
63	0	1	0


;

param qu :=
1	0
2	200
3	900
4	1100
5	700
6	250
7	450
8	350
9	1000
10	950
11	350
12	900
13	1000
14	100
15	550
16	500
17	250
18	1050
19	1000
20	50
21	750
22	750
23	700
24	950
25	1100
26	1050
27	1100
28	300
29	1200
30	700
31	700
32	100
33	750
34	1050
35	750
36	300
37	1150
38	700
39	1300
40	750
41	750
42	1150
43	350
44	1100
45	1300
46	1000
47	150
48	100
49	750
50	100
51	1050
52	600
53	200
54	500
55	1150
56	200
57	1200
58	850
59	100
60	1000
61	900
62	950
63	400



;

set IT:=
(	2	,	A	)
(	3	,	B	)
(	4	,	C	)
(	5	,	A	)
(	6	,	B	)
(	7	,	C	)
(	8	,	A	)
(	9	,	B	)
(	10	,	C	)
(	11	,	A	)
(	12	,	B	)
(	13	,	C	)
(	14	,	A	)
(	15	,	B	)
(	16	,	C	)
(	17	,	A	)
(	18	,	B	)
(	19	,	C	)
(	20	,	A	)
(	21	,	B	)
(	22	,	C	)
(	23	,	A	)
(	24	,	B	)
(	25	,	C	)
(	26	,	A	)
(	27	,	B	)
(	28	,	C	)
(	29	,	A	)
(	30	,	B	)
(	31	,	C	)
(	32	,	A	)
(	33	,	B	)
(	34	,	C	)
(	35	,	A	)
(	36	,	B	)
(	37	,	C	)
(	38	,	A	)
(	39	,	B	)
(	40	,	C	)
(	41	,	A	)
(	42	,	B	)
(	43	,	C	)
(	44	,	A	)
(	45	,	B	)
(	46	,	C	)
(	47	,	A	)
(	48	,	B	)
(	49	,	C	)
(	50	,	A	)
(	51	,	B	)
(	52	,	C	)
(	53	,	A	)
(	54	,	B	)
(	55	,	C	)
(	56	,	A	)
(	57	,	B	)
(	58	,	C	)
(	59	,	A	)
(	60	,	B	)
(	61	,	C	)
(	62	,	A	)
(	63	,	B	)

;